feasible solution found by trivial heuristic after 0.0 seconds, objective value 2.763800e+04
presolving:
(round 1, fast)       151 del vars, 301 del conss, 0 add conss, 0 chg bounds, 0 chg sides, 0 chg coeffs, 0 upgd conss, 0 impls, 5593 clqs
   (0.0s) running MILP presolver
   (0.0s) MILP presolver found nothing
(round 2, exhaustive) 151 del vars, 301 del conss, 0 add conss, 0 chg bounds, 0 chg sides, 0 chg coeffs, 5594 upgd conss, 0 impls, 5593 clqs
(round 3, medium)     151 del vars, 302 del conss, 27 add conss, 0 chg bounds, 28 chg sides, 149 chg coeffs, 5594 upgd conss, 0 impls, 5619 clqs
   (0.2s) probing: 51/150 (34.0%) - 0 fixings, 0 aggregations, 0 implications, 0 bound changes
   (0.2s) probing aborted: 50/50 successive totally useless probings
   (0.2s) symmetry computation started: requiring (bin +, int -, cont +), (fixed: bin -, int +, cont -)
   (0.2s) no symmetry present
presolving (4 rounds: 4 fast, 3 medium, 2 exhaustive):
 151 deleted vars, 303 deleted constraints, 27 added constraints, 0 tightened bounds, 0 added holes, 28 changed sides, 149 changed coefficients
 0 implications, 5619 cliques
presolved problem has 150 variables (150 bin, 0 int, 0 impl, 0 cont) and 5619 constraints
   5619 constraints of type <setppc>
transformed objective value is always integral (scale: 1)
Presolving Time: 0.15
transformed 1/1 original solutions to the transformed problem space

 time | node  | left  |LP iter|LP it/n|mem/heur|mdpt |vars |cons |rows |cuts |sepa|confs|strbr|  dualbound   | primalbound  |  gap   | compl. 
p 0.2s|     1 |     0 |     0 |     - |  clique|   0 | 150 |5619 |5619 |   0 |  0 |   0 |   0 | 4.599900e+04 | 2.866800e+04 |  60.45%| unknown
  0.2s|     1 |     0 |   166 |     - |    18M |   0 | 150 |5619 |5619 |   0 |  0 |   0 |   0 | 3.176100e+04 | 2.866800e+04 |  10.79%| unknown
  0.3s|     1 |     0 |   177 |     - |    19M |   0 | 150 |5619 |5620 |   1 |  1 |   0 |   0 | 3.174700e+04 | 2.866800e+04 |  10.74%| unknown
  0.4s|     1 |     0 |   193 |     - |    20M |   0 | 150 |5619 |5622 |   3 |  2 |   0 |   0 | 3.169300e+04 | 2.866800e+04 |  10.55%| unknown
  0.6s|     1 |     0 |   262 |     - |    20M |   0 | 150 |5619 |5629 |  10 |  3 |   0 |   0 | 3.152650e+04 | 2.866800e+04 |   9.97%| unknown
  0.7s|     1 |     0 |   363 |     - |    21M |   0 | 150 |5619 |5634 |  15 |  4 |   0 |   0 | 3.137800e+04 | 2.866800e+04 |   9.45%| unknown
  1.0s|     1 |     0 |   409 |     - |    21M |   0 | 150 |5619 |5639 |  20 |  5 |   0 |   0 | 3.134575e+04 | 2.866800e+04 |   9.34%| unknown
  1.2s|     1 |     0 |   483 |     - |    22M |   0 | 150 |5619 |5642 |  23 |  6 |   0 |   0 | 3.125850e+04 | 2.866800e+04 |   9.04%| unknown
  1.4s|     1 |     0 |   557 |     - |    23M |   0 | 150 |5619 |5647 |  28 |  7 |   0 |   0 | 3.117300e+04 | 2.866800e+04 |   8.74%| unknown
  1.6s|     1 |     0 |   647 |     - |    24M |   0 | 150 |5619 |5650 |  31 |  8 |   0 |   0 | 3.112675e+04 | 2.866800e+04 |   8.58%| unknown
  2.0s|     1 |     0 |   743 |     - |    25M |   0 | 150 |5619 |5653 |  34 |  9 |   0 |   0 | 3.108538e+04 | 2.866800e+04 |   8.43%| unknown
  2.4s|     1 |     0 |   858 |     - |    26M |   0 | 150 |5619 |5655 |  36 | 10 |   0 |   0 | 3.104350e+04 | 2.866800e+04 |   8.29%| unknown
  2.4s|     1 |     0 |   935 |     - |    26M |   0 | 150 |5619 |5657 |  38 | 11 |   0 |   0 | 3.101336e+04 | 2.866800e+04 |   8.18%| unknown
  2.4s|     1 |     0 |  1072 |     - |    27M |   0 | 150 |5619 |5660 |  41 | 12 |   0 |   0 | 3.096055e+04 | 2.866800e+04 |   8.00%| unknown
  2.5s|     1 |     0 |  1143 |     - |    28M |   0 | 150 |5619 |5661 |  42 | 13 |   0 |   0 | 3.093369e+04 | 2.866800e+04 |   7.90%| unknown
 time | node  | left  |LP iter|LP it/n|mem/heur|mdpt |vars |cons |rows |cuts |sepa|confs|strbr|  dualbound   | primalbound  |  gap   | compl. 
  2.5s|     1 |     0 |  1250 |     - |    28M |   0 | 150 |5619 |5664 |  45 | 14 |   0 |   0 | 3.089084e+04 | 2.866800e+04 |   7.75%| unknown
  2.5s|     1 |     0 |  1417 |     - |    29M |   0 | 150 |5619 |5669 |  50 | 15 |   0 |   0 | 3.080533e+04 | 2.866800e+04 |   7.46%| unknown
  2.6s|     1 |     0 |  1496 |     - |    29M |   0 | 150 |5619 |5673 |  54 | 16 |   0 |   0 | 3.078756e+04 | 2.866800e+04 |   7.39%| unknown
  2.6s|     1 |     0 |  1629 |     - |    30M |   0 | 150 |5619 |5677 |  58 | 17 |   0 |   0 | 3.073079e+04 | 2.866800e+04 |   7.20%| unknown
  2.6s|     1 |     0 |  1749 |     - |    31M |   0 | 150 |5619 |5681 |  62 | 18 |   0 |   0 | 3.069018e+04 | 2.866800e+04 |   7.05%| unknown
  2.7s|     1 |     0 |  1837 |     - |    31M |   0 | 150 |5619 |5684 |  65 | 19 |   0 |   0 | 3.064042e+04 | 2.866800e+04 |   6.88%| unknown
  2.7s|     1 |     0 |  1947 |     - |    32M |   0 | 150 |5619 |5689 |  70 | 20 |   0 |   0 | 3.059305e+04 | 2.866800e+04 |   6.71%| unknown
  2.7s|     1 |     0 |  2040 |     - |    32M |   0 | 150 |5619 |5691 |  72 | 21 |   0 |   0 | 3.055919e+04 | 2.866800e+04 |   6.60%| unknown
  2.8s|     1 |     0 |  2141 |     - |    32M |   0 | 150 |5619 |5692 |  75 | 22 |   0 |   0 | 3.053217e+04 | 2.866800e+04 |   6.50%| unknown
  2.8s|     1 |     0 |  2221 |     - |    32M |   0 | 150 |5619 |5695 |  78 | 23 |   0 |   0 | 3.051859e+04 | 2.866800e+04 |   6.46%| unknown
  2.8s|     1 |     0 |  2314 |     - |    32M |   0 | 150 |5619 |5698 |  81 | 24 |   0 |   0 | 3.049494e+04 | 2.866800e+04 |   6.37%| unknown
  2.8s|     1 |     0 |  2400 |     - |    32M |   0 | 150 |5619 |5700 |  83 | 25 |   0 |   0 | 3.046192e+04 | 2.866800e+04 |   6.26%| unknown
  2.9s|     1 |     0 |  2514 |     - |    32M |   0 | 150 |5619 |5703 |  86 | 26 |   0 |   0 | 3.043584e+04 | 2.866800e+04 |   6.17%| unknown
  2.9s|     1 |     0 |  2593 |     - |    32M |   0 | 150 |5619 |5705 |  88 | 27 |   0 |   0 | 3.041547e+04 | 2.866800e+04 |   6.10%| unknown
  2.9s|     1 |     0 |  2707 |     - |    32M |   0 | 150 |5619 |5705 |  92 | 28 |   0 |   0 | 3.038358e+04 | 2.866800e+04 |   5.98%| unknown
 time | node  | left  |LP iter|LP it/n|mem/heur|mdpt |vars |cons |rows |cuts |sepa|confs|strbr|  dualbound   | primalbound  |  gap   | compl. 
  2.9s|     1 |     0 |  2783 |     - |    32M |   0 | 150 |5619 |5709 |  96 | 29 |   0 |   0 | 3.037239e+04 | 2.866800e+04 |   5.95%| unknown
  3.0s|     1 |     0 |  2881 |     - |    32M |   0 | 150 |5619 |5714 | 101 | 30 |   0 |   0 | 3.035148e+04 | 2.866800e+04 |   5.87%| unknown
  3.0s|     1 |     0 |  2944 |     - |    32M |   0 | 150 |5619 |5715 | 102 | 31 |   0 |   0 | 3.034161e+04 | 2.866800e+04 |   5.84%| unknown
  3.0s|     1 |     0 |  3017 |     - |    32M |   0 | 150 |5619 |5717 | 104 | 32 |   0 |   0 | 3.033306e+04 | 2.866800e+04 |   5.81%| unknown
  3.0s|     1 |     0 |  3062 |     - |    32M |   0 | 150 |5619 |5722 | 109 | 33 |   0 |   0 | 3.032622e+04 | 2.866800e+04 |   5.78%| unknown
  3.1s|     1 |     0 |  3106 |     - |    32M |   0 | 150 |5619 |5722 | 114 | 34 |   0 |   0 | 3.031514e+04 | 2.866800e+04 |   5.75%| unknown
  3.1s|     1 |     0 |  3166 |     - |    32M |   0 | 150 |5619 |5728 | 120 | 35 |   0 |   0 | 3.030357e+04 | 2.866800e+04 |   5.71%| unknown
  3.1s|     1 |     0 |  3209 |     - |    32M |   0 | 150 |5619 |5731 | 123 | 36 |   0 |   0 | 3.029249e+04 | 2.866800e+04 |   5.67%| unknown
  3.1s|     1 |     0 |  3250 |     - |    32M |   0 | 150 |5619 |5735 | 127 | 37 |   0 |   0 | 3.028379e+04 | 2.866800e+04 |   5.64%| unknown
  3.1s|     1 |     0 |  3287 |     - |    32M |   0 | 150 |5619 |5738 | 130 | 38 |   0 |   0 | 3.027414e+04 | 2.866800e+04 |   5.60%| unknown
  3.2s|     1 |     0 |  3333 |     - |    33M |   0 | 150 |5619 |5742 | 134 | 39 |   0 |   0 | 3.025837e+04 | 2.866800e+04 |   5.55%| unknown
  3.2s|     1 |     0 |  3372 |     - |    33M |   0 | 150 |5619 |5738 | 136 | 40 |   0 |   0 | 3.024687e+04 | 2.866800e+04 |   5.51%| unknown
  3.2s|     1 |     0 |  3420 |     - |    33M |   0 | 150 |5619 |5744 | 142 | 41 |   0 |   0 | 3.023393e+04 | 2.866800e+04 |   5.46%| unknown
  3.2s|     1 |     0 |  3473 |     - |    33M |   0 | 150 |5619 |5748 | 146 | 42 |   0 |   0 | 3.022460e+04 | 2.866800e+04 |   5.43%| unknown
  3.3s|     1 |     0 |  3507 |     - |    33M |   0 | 150 |5619 |5754 | 152 | 43 |   0 |   0 | 3.021949e+04 | 2.866800e+04 |   5.41%| unknown
 time | node  | left  |LP iter|LP it/n|mem/heur|mdpt |vars |cons |rows |cuts |sepa|confs|strbr|  dualbound   | primalbound  |  gap   | compl. 
  3.3s|     1 |     0 |  3564 |     - |    33M |   0 | 150 |5619 |5758 | 156 | 44 |   0 |   0 | 3.020664e+04 | 2.866800e+04 |   5.37%| unknown
  3.3s|     1 |     0 |  3597 |     - |    33M |   0 | 150 |5619 |5762 | 160 | 45 |   0 |   0 | 3.020239e+04 | 2.866800e+04 |   5.35%| unknown
  3.3s|     1 |     0 |  3631 |     - |    33M |   0 | 150 |5619 |5761 | 163 | 46 |   0 |   0 | 3.019598e+04 | 2.866800e+04 |   5.33%| unknown
  3.3s|     1 |     0 |  3667 |     - |    33M |   0 | 150 |5619 |5766 | 168 | 47 |   0 |   0 | 3.019189e+04 | 2.866800e+04 |   5.32%| unknown
  3.4s|     1 |     0 |  3713 |     - |    33M |   0 | 150 |5619 |5769 | 171 | 48 |   0 |   0 | 3.018726e+04 | 2.866800e+04 |   5.30%| unknown
  3.4s|     1 |     0 |  3770 |     - |    33M |   0 | 150 |5619 |5774 | 176 | 49 |   0 |   0 | 3.017818e+04 | 2.866800e+04 |   5.27%| unknown
  3.4s|     1 |     0 |  3823 |     - |    33M |   0 | 150 |5619 |5779 | 181 | 50 |   0 |   0 | 3.016905e+04 | 2.866800e+04 |   5.24%| unknown
  3.5s|     1 |     0 |  3878 |     - |    33M |   0 | 150 |5619 |5783 | 185 | 51 |   0 |   0 | 3.015967e+04 | 2.866800e+04 |   5.20%| unknown
  3.5s|     1 |     0 |  3899 |     - |    33M |   0 | 150 |5619 |5781 | 188 | 52 |   0 |   0 | 3.015682e+04 | 2.866800e+04 |   5.19%| unknown
  3.5s|     1 |     0 |  3954 |     - |    33M |   0 | 150 |5619 |5786 | 193 | 53 |   0 |   0 | 3.014946e+04 | 2.866800e+04 |   5.17%| unknown
  3.5s|     1 |     0 |  4004 |     - |    33M |   0 | 150 |5619 |5790 | 197 | 54 |   0 |   0 | 3.014156e+04 | 2.866800e+04 |   5.14%| unknown
  3.5s|     1 |     0 |  4035 |     - |    33M |   0 | 150 |5619 |5796 | 203 | 55 |   0 |   0 | 3.013534e+04 | 2.866800e+04 |   5.12%| unknown
  3.6s|     1 |     0 |  4068 |     - |    33M |   0 | 150 |5619 |5800 | 207 | 56 |   0 |   0 | 3.013040e+04 | 2.866800e+04 |   5.10%| unknown
  3.6s|     1 |     0 |  4121 |     - |    33M |   0 | 150 |5619 |5803 | 210 | 57 |   0 |   0 | 3.012219e+04 | 2.866800e+04 |   5.07%| unknown
  3.7s|     1 |     0 |  4190 |     - |    33M |   0 | 150 |5619 |5803 | 214 | 58 |   0 |   0 | 3.011207e+04 | 2.866800e+04 |   5.04%| unknown
 time | node  | left  |LP iter|LP it/n|mem/heur|mdpt |vars |cons |rows |cuts |sepa|confs|strbr|  dualbound   | primalbound  |  gap   | compl. 
  3.7s|     1 |     0 |  4292 |     - |    33M |   0 | 150 |5619 |5808 | 219 | 59 |   0 |   0 | 3.010348e+04 | 2.866800e+04 |   5.01%| unknown
  3.7s|     1 |     0 |  4348 |     - |    33M |   0 | 150 |5619 |5812 | 223 | 60 |   0 |   0 | 3.009966e+04 | 2.866800e+04 |   4.99%| unknown
  3.8s|     1 |     0 |  4436 |     - |    33M |   0 | 150 |5619 |5816 | 227 | 61 |   0 |   0 | 3.008711e+04 | 2.866800e+04 |   4.95%| unknown
  3.8s|     1 |     0 |  4472 |     - |    33M |   0 | 150 |5619 |5820 | 231 | 62 |   0 |   0 | 3.008300e+04 | 2.866800e+04 |   4.94%| unknown
  3.8s|     1 |     0 |  4527 |     - |    34M |   0 | 150 |5619 |5826 | 237 | 63 |   0 |   0 | 3.007349e+04 | 2.866800e+04 |   4.90%| unknown
  3.9s|     1 |     0 |  4566 |     - |    34M |   0 | 150 |5619 |5815 | 239 | 64 |   0 |   0 | 3.007092e+04 | 2.866800e+04 |   4.89%| unknown
  3.9s|     1 |     0 |  4629 |     - |    34M |   0 | 150 |5619 |5821 | 245 | 65 |   0 |   0 | 3.006455e+04 | 2.866800e+04 |   4.87%| unknown
  3.9s|     1 |     0 |  4692 |     - |    34M |   0 | 150 |5619 |5827 | 251 | 66 |   0 |   0 | 3.005581e+04 | 2.866800e+04 |   4.84%| unknown
  4.0s|     1 |     0 |  4760 |     - |    34M |   0 | 150 |5619 |5832 | 256 | 67 |   0 |   0 | 3.004783e+04 | 2.866800e+04 |   4.81%| unknown
  4.0s|     1 |     0 |  4806 |     - |    34M |   0 | 150 |5619 |5835 | 259 | 68 |   0 |   0 | 3.004014e+04 | 2.866800e+04 |   4.79%| unknown
  4.0s|     1 |     0 |  4860 |     - |    34M |   0 | 150 |5619 |5839 | 263 | 69 |   0 |   0 | 3.003450e+04 | 2.866800e+04 |   4.77%| unknown
  4.1s|     1 |     0 |  4932 |     - |    34M |   0 | 150 |5619 |5830 | 268 | 70 |   0 |   0 | 3.002451e+04 | 2.866800e+04 |   4.73%| unknown
  4.1s|     1 |     0 |  4992 |     - |    34M |   0 | 150 |5619 |5836 | 274 | 71 |   0 |   0 | 3.001837e+04 | 2.866800e+04 |   4.71%| unknown
  4.1s|     1 |     0 |  5028 |     - |    34M |   0 | 150 |5619 |5839 | 277 | 72 |   0 |   0 | 3.001535e+04 | 2.866800e+04 |   4.70%| unknown
  4.1s|     1 |     0 |  5060 |     - |    34M |   0 | 150 |5619 |5843 | 281 | 73 |   0 |   0 | 3.001267e+04 | 2.866800e+04 |   4.69%| unknown
 time | node  | left  |LP iter|LP it/n|mem/heur|mdpt |vars |cons |rows |cuts |sepa|confs|strbr|  dualbound   | primalbound  |  gap   | compl. 
  4.2s|     1 |     0 |  5111 |     - |    34M |   0 | 150 |5619 |5846 | 284 | 74 |   0 |   0 | 3.000678e+04 | 2.866800e+04 |   4.67%| unknown
  4.2s|     1 |     0 |  5163 |     - |    35M |   0 | 150 |5619 |5852 | 290 | 75 |   0 |   0 | 2.999946e+04 | 2.866800e+04 |   4.64%| unknown
  4.3s|     1 |     0 |  5206 |     - |    35M |   0 | 150 |5619 |5841 | 294 | 76 |   0 |   0 | 2.999746e+04 | 2.866800e+04 |   4.64%| unknown
  4.3s|     1 |     0 |  5255 |     - |    35M |   0 | 150 |5619 |5846 | 299 | 77 |   0 |   0 | 2.999443e+04 | 2.866800e+04 |   4.63%| unknown
  4.3s|     1 |     0 |  5326 |     - |    35M |   0 | 150 |5619 |5848 | 301 | 78 |   0 |   0 | 2.998713e+04 | 2.866800e+04 |   4.60%| unknown
  4.4s|     1 |     0 |  5385 |     - |    35M |   0 | 150 |5619 |5850 | 303 | 79 |   0 |   0 | 2.998292e+04 | 2.866800e+04 |   4.59%| unknown
  4.5s|     1 |     0 |  5455 |     - |    35M |   0 | 150 |5619 |5853 | 306 | 80 |   0 |   0 | 2.997162e+04 | 2.866800e+04 |   4.55%| unknown
  4.5s|     1 |     0 |  5541 |     - |    35M |   0 | 150 |5619 |5859 | 312 | 81 |   0 |   0 | 2.996697e+04 | 2.866800e+04 |   4.53%| unknown
  4.6s|     1 |     0 |  5571 |     - |    35M |   0 | 150 |5619 |5840 | 316 | 82 |   0 |   0 | 2.996336e+04 | 2.866800e+04 |   4.52%| unknown
  4.7s|     1 |     0 |  5626 |     - |    35M |   0 | 150 |5619 |5842 | 318 | 83 |   0 |   0 | 2.995845e+04 | 2.866800e+04 |   4.50%| unknown
  4.7s|     1 |     0 |  5662 |     - |    35M |   0 | 150 |5619 |5845 | 321 | 84 |   0 |   0 | 2.995640e+04 | 2.866800e+04 |   4.49%| unknown
  4.7s|     1 |     0 |  5703 |     - |    35M |   0 | 150 |5619 |5847 | 323 | 85 |   0 |   0 | 2.995473e+04 | 2.866800e+04 |   4.49%| unknown
  4.8s|     1 |     0 |  5739 |     - |    35M |   0 | 150 |5619 |5851 | 327 | 86 |   0 |   0 | 2.995239e+04 | 2.866800e+04 |   4.48%| unknown
  4.8s|     1 |     0 |  5768 |     - |    35M |   0 | 150 |5619 |5856 | 332 | 87 |   0 |   0 | 2.995108e+04 | 2.866800e+04 |   4.48%| unknown
  4.8s|     1 |     0 |  5811 |     - |    35M |   0 | 150 |5619 |5830 | 334 | 88 |   0 |   0 | 2.994856e+04 | 2.866800e+04 |   4.47%| unknown
 time | node  | left  |LP iter|LP it/n|mem/heur|mdpt |vars |cons |rows |cuts |sepa|confs|strbr|  dualbound   | primalbound  |  gap   | compl. 
  4.9s|     1 |     0 |  5872 |     - |    35M |   0 | 150 |5619 |5836 | 340 | 89 |   0 |   0 | 2.994270e+04 | 2.866800e+04 |   4.45%| unknown
  5.0s|     1 |     0 |  5913 |     - |    35M |   0 | 150 |5619 |5840 | 344 | 90 |   0 |   0 | 2.994030e+04 | 2.866800e+04 |   4.44%| unknown
  5.0s|     1 |     0 |  5965 |     - |    35M |   0 | 150 |5619 |5845 | 349 | 91 |   0 |   0 | 2.993538e+04 | 2.866800e+04 |   4.42%| unknown
  5.1s|     1 |     0 |  6029 |     - |    35M |   0 | 150 |5619 |5849 | 353 | 92 |   0 |   0 | 2.993294e+04 | 2.866800e+04 |   4.41%| unknown
  5.1s|     1 |     0 |  6058 |     - |    35M |   0 | 150 |5619 |5852 | 356 | 93 |   0 |   0 | 2.993159e+04 | 2.866800e+04 |   4.41%| unknown
  5.1s|     1 |     0 |  6099 |     - |    35M |   0 | 150 |5619 |5834 | 358 | 94 |   0 |   0 | 2.992978e+04 | 2.866800e+04 |   4.40%| unknown
  5.1s|     1 |     0 |  6133 |     - |    35M |   0 | 150 |5619 |5838 | 362 | 95 |   0 |   0 | 2.992789e+04 | 2.866800e+04 |   4.39%| unknown
  5.2s|     1 |     0 |  6184 |     - |    35M |   0 | 150 |5619 |5843 | 367 | 96 |   0 |   0 | 2.992527e+04 | 2.866800e+04 |   4.39%| unknown
  5.3s|     1 |     0 |  6235 |     - |    35M |   0 | 150 |5619 |5846 | 370 | 97 |   0 |   0 | 2.992315e+04 | 2.866800e+04 |   4.38%| unknown
  5.3s|     1 |     0 |  6260 |     - |    35M |   0 | 150 |5619 |5848 | 372 | 98 |   0 |   0 | 2.992216e+04 | 2.866800e+04 |   4.37%| unknown
  5.3s|     1 |     0 |  6318 |     - |    35M |   0 | 150 |5619 |5851 | 375 | 99 |   0 |   0 | 2.992035e+04 | 2.866800e+04 |   4.37%| unknown
  5.3s|     1 |     0 |  6345 |     - |    35M |   0 | 150 |5619 |5835 | 376 |100 |   0 |   0 | 2.991916e+04 | 2.866800e+04 |   4.36%| unknown
  5.4s|     1 |     0 |  6399 |     - |    35M |   0 | 150 |5619 |5844 | 385 |101 |   0 |   0 | 2.991709e+04 | 2.866800e+04 |   4.36%| unknown
  5.4s|     1 |     0 |  6469 |     - |    35M |   0 | 150 |5619 |5851 | 392 |102 |   0 |   0 | 2.991262e+04 | 2.866800e+04 |   4.34%| unknown
  5.5s|     1 |     0 |  6517 |     - |    35M |   0 | 150 |5619 |5856 | 397 |103 |   0 |   0 | 2.990915e+04 | 2.866800e+04 |   4.33%| unknown
 time | node  | left  |LP iter|LP it/n|mem/heur|mdpt |vars |cons |rows |cuts |sepa|confs|strbr|  dualbound   | primalbound  |  gap   | compl. 
  5.5s|     1 |     0 |  6595 |     - |    35M |   0 | 150 |5619 |5862 | 403 |104 |   0 |   0 | 2.990345e+04 | 2.866800e+04 |   4.31%| unknown
  5.6s|     1 |     0 |  6656 |     - |    35M |   0 | 150 |5619 |5866 | 407 |105 |   0 |   0 | 2.989870e+04 | 2.866800e+04 |   4.29%| unknown
  5.6s|     1 |     0 |  6704 |     - |    35M |   0 | 150 |5619 |5855 | 412 |106 |   0 |   0 | 2.989535e+04 | 2.866800e+04 |   4.28%| unknown
  5.7s|     1 |     0 |  6762 |     - |    35M |   0 | 150 |5619 |5858 | 415 |107 |   0 |   0 | 2.989316e+04 | 2.866800e+04 |   4.27%| unknown
  5.7s|     1 |     0 |  6829 |     - |    35M |   0 | 150 |5619 |5865 | 422 |108 |   0 |   0 | 2.989007e+04 | 2.866800e+04 |   4.26%| unknown
  5.7s|     1 |     0 |  6865 |     - |    35M |   0 | 150 |5619 |5869 | 426 |109 |   0 |   0 | 2.988891e+04 | 2.866800e+04 |   4.26%| unknown
  5.8s|     1 |     0 |  6927 |     - |    35M |   0 | 150 |5619 |5873 | 430 |110 |   0 |   0 | 2.988602e+04 | 2.866800e+04 |   4.25%| unknown
  5.8s|     1 |     0 |  6974 |     - |    35M |   0 | 150 |5619 |5875 | 432 |111 |   0 |   0 | 2.988396e+04 | 2.866800e+04 |   4.24%| unknown
  5.8s|     1 |     0 |  7016 |     - |    36M |   0 | 150 |5619 |5869 | 440 |112 |   0 |   0 | 2.988139e+04 | 2.866800e+04 |   4.23%| unknown
  5.9s|     1 |     0 |  7050 |     - |    36M |   0 | 150 |5619 |5877 | 448 |113 |   0 |   0 | 2.988030e+04 | 2.866800e+04 |   4.23%| unknown
  6.0s|     1 |     0 |  7107 |     - |    36M |   0 | 150 |5619 |5882 | 453 |114 |   0 |   0 | 2.987734e+04 | 2.866800e+04 |   4.22%| unknown
  6.0s|     1 |     0 |  7163 |     - |    36M |   0 | 150 |5619 |5884 | 455 |115 |   0 |   0 | 2.987436e+04 | 2.866800e+04 |   4.21%| unknown
  6.1s|     1 |     0 |  7219 |     - |    36M |   0 | 150 |5619 |5887 | 458 |116 |   0 |   0 | 2.987223e+04 | 2.866800e+04 |   4.20%| unknown
  6.1s|     1 |     0 |  7282 |     - |    36M |   0 | 150 |5619 |5892 | 463 |117 |   0 |   0 | 2.987040e+04 | 2.866800e+04 |   4.19%| unknown
  6.1s|     1 |     0 |  7337 |     - |    36M |   0 | 150 |5619 |5870 | 470 |118 |   0 |   0 | 2.986909e+04 | 2.866800e+04 |   4.19%| unknown
 time | node  | left  |LP iter|LP it/n|mem/heur|mdpt |vars |cons |rows |cuts |sepa|confs|strbr|  dualbound   | primalbound  |  gap   | compl. 
  6.2s|     1 |     0 |  7389 |     - |    36M |   0 | 150 |5619 |5874 | 474 |119 |   0 |   0 | 2.986728e+04 | 2.866800e+04 |   4.18%| unknown
  6.2s|     1 |     0 |  7429 |     - |    36M |   0 | 150 |5619 |5879 | 479 |120 |   0 |   0 | 2.986656e+04 | 2.866800e+04 |   4.18%| unknown
  6.2s|     1 |     0 |  7488 |     - |    36M |   0 | 150 |5619 |5883 | 483 |121 |   0 |   0 | 2.986569e+04 | 2.866800e+04 |   4.18%| unknown
  6.3s|     1 |     0 |  7540 |     - |    36M |   0 | 150 |5619 |5885 | 485 |122 |   0 |   0 | 2.986457e+04 | 2.866800e+04 |   4.17%| unknown
  6.3s|     1 |     0 |  7582 |     - |    36M |   0 | 150 |5619 |5889 | 489 |123 |   0 |   0 | 2.986322e+04 | 2.866800e+04 |   4.17%| unknown
  6.4s|     1 |     0 |  7646 |     - |    36M |   0 | 150 |5619 |5869 | 493 |124 |   0 |   0 | 2.986085e+04 | 2.866800e+04 |   4.16%| unknown
  6.4s|     1 |     0 |  7677 |     - |    36M |   0 | 150 |5619 |5876 | 500 |125 |   0 |   0 | 2.985996e+04 | 2.866800e+04 |   4.16%| unknown
  6.4s|     1 |     0 |  7714 |     - |    36M |   0 | 150 |5619 |5880 | 504 |126 |   0 |   0 | 2.985857e+04 | 2.866800e+04 |   4.15%| unknown
  6.5s|     1 |     0 |  7748 |     - |    36M |   0 | 150 |5619 |5885 | 509 |127 |   0 |   0 | 2.985765e+04 | 2.866800e+04 |   4.15%| unknown
  6.5s|     1 |     0 |  7802 |     - |    36M |   0 | 150 |5619 |5890 | 514 |128 |   0 |   0 | 2.985517e+04 | 2.866800e+04 |   4.14%| unknown
  6.6s|     1 |     0 |  7890 |     - |    36M |   0 | 150 |5619 |5894 | 518 |129 |   0 |   0 | 2.985140e+04 | 2.866800e+04 |   4.13%| unknown
  6.7s|     1 |     0 |  7946 |     - |    36M |   0 | 150 |5619 |5871 | 526 |130 |   0 |   0 | 2.985004e+04 | 2.866800e+04 |   4.12%| unknown
  6.7s|     1 |     0 |  7988 |     - |    36M |   0 | 150 |5619 |5875 | 530 |131 |   0 |   0 | 2.984849e+04 | 2.866800e+04 |   4.12%| unknown
  6.7s|     1 |     0 |  8028 |     - |    36M |   0 | 150 |5619 |5877 | 532 |132 |   0 |   0 | 2.984751e+04 | 2.866800e+04 |   4.11%| unknown
  6.8s|     1 |     0 |  8059 |     - |    36M |   0 | 150 |5619 |5882 | 537 |133 |   0 |   0 | 2.984618e+04 | 2.866800e+04 |   4.11%| unknown
 time | node  | left  |LP iter|LP it/n|mem/heur|mdpt |vars |cons |rows |cuts |sepa|confs|strbr|  dualbound   | primalbound  |  gap   | compl. 
  6.8s|     1 |     0 |  8085 |     - |    36M |   0 | 150 |5619 |5885 | 540 |134 |   0 |   0 | 2.984596e+04 | 2.866800e+04 |   4.11%| unknown
  6.9s|     1 |     0 |  8131 |     - |    36M |   0 | 150 |5619 |5894 | 549 |135 |   0 |   0 | 2.984530e+04 | 2.866800e+04 |   4.11%| unknown
  6.9s|     1 |     0 |  8183 |     - |    36M |   0 | 150 |5619 |5865 | 553 |136 |   0 |   0 | 2.984455e+04 | 2.866800e+04 |   4.10%| unknown
  7.0s|     1 |     0 |  8227 |     - |    36M |   0 | 150 |5619 |5870 | 558 |137 |   0 |   0 | 2.984353e+04 | 2.866800e+04 |   4.10%| unknown
  7.1s|     1 |     0 |  8269 |     - |    36M |   0 | 150 |5619 |5873 | 561 |138 |   0 |   0 | 2.984304e+04 | 2.866800e+04 |   4.10%| unknown
  7.1s|     1 |     0 |  8308 |     - |    36M |   0 | 150 |5619 |5880 | 568 |139 |   0 |   0 | 2.984234e+04 | 2.866800e+04 |   4.10%| unknown
  7.2s|     1 |     0 |  8337 |     - |    36M |   0 | 150 |5619 |5883 | 571 |140 |   0 |   0 | 2.984204e+04 | 2.866800e+04 |   4.10%| unknown
  7.2s|     1 |     0 |  8366 |     - |    36M |   0 | 150 |5619 |5889 | 577 |141 |   0 |   0 | 2.984130e+04 | 2.866800e+04 |   4.09%| unknown
  7.3s|     1 |     0 |  8422 |     - |    36M |   0 | 150 |5619 |5857 | 579 |142 |   0 |   0 | 2.984000e+04 | 2.866800e+04 |   4.09%| unknown
  7.3s|     1 |     0 |  8447 |     - |    36M |   0 | 150 |5619 |5861 | 583 |143 |   0 |   0 | 2.983965e+04 | 2.866800e+04 |   4.09%| unknown
  7.4s|     1 |     0 |  8489 |     - |    36M |   0 | 150 |5619 |5865 | 587 |144 |   0 |   0 | 2.983848e+04 | 2.866800e+04 |   4.08%| unknown
  7.5s|     1 |     0 |  8542 |     - |    36M |   0 | 150 |5619 |5870 | 592 |145 |   0 |   0 | 2.983728e+04 | 2.866800e+04 |   4.08%| unknown
  7.6s|     1 |     0 |  8598 |     - |    36M |   0 | 150 |5619 |5874 | 596 |146 |   0 |   0 | 2.983649e+04 | 2.866800e+04 |   4.08%| unknown
  7.6s|     1 |     0 |  8624 |     - |    36M |   0 | 150 |5619 |5876 | 598 |147 |   0 |   0 | 2.983622e+04 | 2.866800e+04 |   4.07%| unknown
  7.7s|     1 |     0 |  8640 |     - |    36M |   0 | 150 |5619 |5857 | 600 |148 |   0 |   0 | 2.983608e+04 | 2.866800e+04 |   4.07%| unknown
 time | node  | left  |LP iter|LP it/n|mem/heur|mdpt |vars |cons |rows |cuts |sepa|confs|strbr|  dualbound   | primalbound  |  gap   | compl. 
  7.8s|     1 |     0 |  8677 |     - |    36M |   0 | 150 |5619 |5863 | 606 |149 |   0 |   0 | 2.983495e+04 | 2.866800e+04 |   4.07%| unknown
  7.9s|     1 |     0 |  8707 |     - |    36M |   0 | 150 |5619 |5866 | 609 |150 |   0 |   0 | 2.983431e+04 | 2.866800e+04 |   4.07%| unknown
  8.0s|     1 |     0 |  8756 |     - |    36M |   0 | 150 |5619 |5873 | 616 |151 |   0 |   0 | 2.983372e+04 | 2.866800e+04 |   4.07%| unknown
  8.1s|     1 |     0 |  8806 |     - |    36M |   0 | 150 |5619 |5879 | 622 |152 |   0 |   0 | 2.983263e+04 | 2.866800e+04 |   4.06%| unknown
  8.1s|     1 |     0 |  8832 |     - |    36M |   0 | 150 |5619 |5883 | 626 |153 |   0 |   0 | 2.983190e+04 | 2.866800e+04 |   4.06%| unknown
  8.3s|     1 |     0 |  8859 |     - |    36M |   0 | 150 |5619 |5855 | 627 |154 |   0 |   0 | 2.983160e+04 | 2.866800e+04 |   4.06%| unknown
  8.3s|     1 |     0 |  8886 |     - |    36M |   0 | 150 |5619 |5860 | 632 |155 |   0 |   0 | 2.983134e+04 | 2.866800e+04 |   4.06%| unknown
  8.5s|     1 |     0 |  8923 |     - |    36M |   0 | 150 |5619 |5867 | 639 |156 |   0 |   0 | 2.983108e+04 | 2.866800e+04 |   4.06%| unknown
  8.6s|     1 |     0 |  8944 |     - |    36M |   0 | 150 |5619 |5872 | 644 |157 |   0 |   0 | 2.983087e+04 | 2.866800e+04 |   4.06%| unknown
  8.7s|     1 |     0 |  8957 |     - |    36M |   0 | 150 |5619 |5874 | 646 |158 |   0 |   0 | 2.983084e+04 | 2.866800e+04 |   4.06%| unknown
  8.8s|     1 |     0 |  8971 |     - |    36M |   0 | 150 |5619 |5875 | 647 |159 |   0 |   0 | 2.983081e+04 | 2.866800e+04 |   4.06%| unknown
  8.9s|     1 |     0 |  8994 |     - |    36M |   0 | 150 |5619 |5847 | 650 |160 |   0 |   0 | 2.983068e+04 | 2.866800e+04 |   4.06%| unknown
  9.0s|     1 |     0 |  9014 |     - |    36M |   0 | 150 |5619 |5849 | 652 |161 |   0 |   0 | 2.983061e+04 | 2.866800e+04 |   4.06%| unknown
  9.1s|     1 |     0 |  9023 |     - |    36M |   0 | 150 |5619 |5852 | 655 |162 |   0 |   0 | 2.983058e+04 | 2.866800e+04 |   4.06%| unknown
  9.2s|     1 |     0 |  9037 |     - |    36M |   0 | 150 |5619 |5853 | 656 |164 |   0 |   0 | 2.983054e+04 | 2.866800e+04 |   4.06%| unknown
 time | node  | left  |LP iter|LP it/n|mem/heur|mdpt |vars |cons |rows |cuts |sepa|confs|strbr|  dualbound   | primalbound  |  gap   | compl. 
d 9.4s|     1 |     0 |  9485 |     - |farkasdi|   0 | 150 |5619 |5853 |   0 |166 |   0 |   0 | 2.983054e+04 | 2.875400e+04 |   3.74%| unknown
  9.4s|     1 |     0 |  9485 |     - |    37M |   0 | 150 |5619 |5853 | 656 |166 |   0 |   0 | 2.983054e+04 | 2.875400e+04 |   3.74%| unknown
  9.5s|     1 |     0 |  9502 |     - |    37M |   0 | 150 |5619 |5857 | 660 |167 |   0 |   0 | 2.983049e+04 | 2.875400e+04 |   3.74%| unknown
 12.6s|     1 |     2 |  9502 |     - |    37M |   0 | 150 |5619 |5857 | 660 |168 |   0 |  26 | 2.981421e+04 | 2.875400e+04 |   3.69%| unknown
*15.2s|     5 |     4 |  9863 | 205.2 |strongbr|   3 | 150 |5619 |5769 | 660 |  1 |   0 | 111 | 2.981421e+04 | 2.884200e+04 |   3.37%| unknown
*21.6s|    22 |     7 | 11410 | 112.8 |strongbr|   6 | 150 |5619 |5769 | 660 |  3 |   0 | 375 | 2.980301e+04 | 2.893900e+04 |   2.99%|  18.08%
*22.1s|    24 |     7 | 11541 | 108.7 |strongbr|   7 | 150 |5619 |5769 | 660 |  1 |   0 | 401 | 2.980301e+04 | 2.898200e+04 |   2.83%|  19.01%
*22.5s|    26 |     7 | 11741 | 108.0 |    LP  |   8 | 150 |5619 |5769 | 660 |  4 |   0 | 441 | 2.980301e+04 | 2.899400e+04 |   2.79%|  19.39%
*24.7s|    30 |     7 | 12304 | 112.5 |strongbr|  10 | 150 |5619 |5812 | 703 | 14 |   0 | 503 | 2.980301e+04 | 2.900800e+04 |   2.74%|  20.51%
 33.4s|   100 |    15 | 17093 |  81.3 |    52M |  20 | 150 |5619 |5829 | 833 |  1 |   0 | 742 | 2.972461e+04 | 2.900800e+04 |   2.47%|  24.01%
 35.2s|   200 |    23 | 21518 |  62.7 |    53M |  28 | 150 |5619 |5842 | 893 |  1 |   0 | 760 | 2.968239e+04 | 2.900800e+04 |   2.32%|  24.88%
 37.2s|   300 |    27 | 25005 |  53.4 |    54M |  32 | 150 |5619 |5847 | 906 |  0 |   0 | 764 | 2.964617e+04 | 2.900800e+04 |   2.20%|  34.39%
 38.3s|   400 |    35 | 28833 |  49.6 |    54M |  39 | 150 |5619 |   0 | 929 |  0 |   0 | 768 | 2.957202e+04 | 2.900800e+04 |   1.94%|  36.25%
 40.5s|   500 |    37 | 32533 |  47.1 |    62M |  45 | 150 |5619 |   0 | 967 |  0 |   0 | 773 | 2.956855e+04 | 2.900800e+04 |   1.93%|  36.67%
 42.7s|   600 |    39 | 36036 |  45.1 |    69M |  55 | 150 |5619 |5858 |1027 |  1 |   0 | 779 | 2.954804e+04 | 2.900800e+04 |   1.86%|  38.14%
 time | node  | left  |LP iter|LP it/n|mem/heur|mdpt |vars |cons |rows |cuts |sepa|confs|strbr|  dualbound   | primalbound  |  gap   | compl. 
 43.8s|   700 |    43 | 39621 |  43.7 |    73M |  56 | 150 |5619 |5857 |1093 |  1 |   0 | 781 | 2.951817e+04 | 2.900800e+04 |   1.76%|  38.64%
 45.2s|   800 |    45 | 42678 |  42.1 |    74M |  63 | 150 |5619 |5846 |1134 |  1 |   0 | 784 | 2.949864e+04 | 2.900800e+04 |   1.69%|  39.53%
 46.1s|   900 |    45 | 44593 |  39.5 |    76M |  63 | 150 |5619 |   0 |1164 |  0 |   0 | 786 | 2.949280e+04 | 2.900800e+04 |   1.67%|  43.89%
 47.1s|  1000 |    49 | 47052 |  38.0 |    76M |  63 | 150 |5619 |5804 |1174 |  0 |   0 | 799 | 2.949048e+04 | 2.900800e+04 |   1.66%|  45.60%
 49.3s|  1100 |    55 | 50048 |  37.3 |    78M |  63 | 150 |5619 |5802 |1209 |  0 |   0 | 799 | 2.945900e+04 | 2.900800e+04 |   1.55%|  47.64%
 51.9s|  1200 |    59 | 53084 |  36.7 |    79M |  66 | 150 |5619 |5805 |1237 |  1 |   0 | 827 | 2.943829e+04 | 2.900800e+04 |   1.48%|  50.38%
 52.6s|  1300 |    63 | 55534 |  35.8 |    79M |  66 | 150 |5619 |5789 |1247 |  1 |   0 | 828 | 2.943829e+04 | 2.900800e+04 |   1.48%|  51.55%
*52.6s|  1308 |    58 | 55630 |  35.6 |    LP  |  66 | 150 |5619 |5789 |1247 |  1 |   0 | 831 | 2.943829e+04 | 2.904300e+04 |   1.36%|  51.56%
 54.5s|  1400 |    58 | 58505 |  35.4 |    79M |  66 | 150 |5619 |5846 |1280 |  0 |   0 | 841 | 2.942452e+04 | 2.904300e+04 |   1.31%|  55.44%
 55.6s|  1500 |    58 | 61324 |  34.9 |    79M |  66 | 150 |5619 |5846 |1299 |  1 |   0 | 857 | 2.940516e+04 | 2.904300e+04 |   1.25%|  58.67%
 56.6s|  1600 |    60 | 64296 |  34.6 |    79M |  66 | 150 |5619 |5833 |1319 |  1 |   0 | 864 | 2.939894e+04 | 2.904300e+04 |   1.23%|  60.41%
 57.6s|  1700 |    60 | 67509 |  34.4 |    80M |  66 | 150 |5619 |5852 |1335 |  1 |   0 | 879 | 2.939894e+04 | 2.904300e+04 |   1.23%|  63.84%
 59.8s|  1800 |    60 | 70405 |  34.1 |    81M |  66 | 150 |5619 |5790 |1374 |  1 |   0 | 889 | 2.936042e+04 | 2.904300e+04 |   1.09%|  67.92%
 60.7s|  1900 |    60 | 73019 |  33.7 |    82M |  73 | 150 |5619 |5809 |1385 |  1 |   0 | 892 | 2.934748e+04 | 2.904300e+04 |   1.05%|  71.30%
 62.4s|  2000 |    54 | 75137 |  33.1 |    82M |  73 | 150 |5619 |5786 |1400 |  0 |   0 | 905 | 2.934748e+04 | 2.904300e+04 |   1.05%|  75.07%
 time | node  | left  |LP iter|LP it/n|mem/heur|mdpt |vars |cons |rows |cuts |sepa|confs|strbr|  dualbound   | primalbound  |  gap   | compl. 
 63.5s|  2100 |    48 | 77221 |  32.5 |    82M |  73 | 150 |5619 |5852 |1420 |  1 |   0 | 914 | 2.925881e+04 | 2.904300e+04 |   0.74%|  80.34%
Restart triggered after 50 consecutive estimations that the remaining tree will be large
(run 1, node 2193) performing user restart

(restart) converted 150 cuts from the global cut pool into linear constraints

presolving:
(round 1, exhaustive) 0 del vars, 0 del conss, 0 add conss, 0 chg bounds, 0 chg sides, 0 chg coeffs, 150 upgd conss, 0 impls, 5769 clqs
presolving (2 rounds: 2 fast, 2 medium, 2 exhaustive):
 0 deleted vars, 0 deleted constraints, 0 added constraints, 0 tightened bounds, 0 added holes, 0 changed sides, 0 changed coefficients
 0 implications, 5769 cliques
presolved problem has 150 variables (150 bin, 0 int, 0 impl, 0 cont) and 5769 constraints
   5769 constraints of type <setppc>
transformed objective value is always integral (scale: 1)
Presolving Time: 0.19
transformed 100/100 original solutions to the transformed problem space

 time | node  | left  |LP iter|LP it/n|mem/heur|mdpt |vars |cons |rows |cuts |sepa|confs|strbr|  dualbound   | primalbound  |  gap   | compl. 
 64.6s|     1 |     0 | 79909 |     - |    82M |   0 | 150 |5769 |5769 |   0 |  0 |   0 | 919 | 2.921386e+04 | 2.904300e+04 |   0.59%| unknown
 67.1s|     1 |     2 | 80234 |     - |    83M |   0 | 150 |5769 |5769 |   0 |  2 |   0 | 950 | 2.921386e+04 | 2.904300e+04 |   0.59%| unknown
 77.4s|   100 |    33 | 85788 |  33.2 |    84M |  25 | 150 |5769 |5775 |  28 |  0 |   0 |1208 | 2.921386e+04 | 2.904300e+04 |   0.59%|  17.49%
 81.3s|   200 |    23 | 88219 |  32.8 |    85M |  25 | 150 |5769 |5773 |  68 |  0 |   0 |1256 | 2.921386e+04 | 2.904300e+04 |   0.59%|  19.15%
 84.6s|   300 |    29 | 91587 |  32.8 |    85M |  25 | 150 |5769 |5775 |  91 |  1 |   0 |1320 | 2.921386e+04 | 2.904300e+04 |   0.59%|  21.32%
 86.7s|   400 |    27 | 94140 |  32.6 |    85M |  36 | 150 |5769 |   0 | 105 |  0 |   0 |1341 | 2.921386e+04 | 2.904300e+04 |   0.59%|  22.57%
 89.2s|   500 |    23 | 96533 |  32.2 |    86M |  36 | 150 |5769 |5775 | 130 |  1 |   0 |1360 | 2.921386e+04 | 2.904300e+04 |   0.59%|  27.19%
 89.7s|   600 |    23 | 98308 |  31.7 |    86M |  36 | 150 |5769 |5775 | 131 |  0 |   0 |1369 | 2.921386e+04 | 2.904300e+04 |   0.59%|  27.20%
 90.3s|   700 |    21 |100207 |  31.3 |    86M |  36 | 150 |5769 |5773 | 131 |  1 |   0 |1374 | 2.921386e+04 | 2.904300e+04 |   0.59%|  32.17%
 91.5s|   800 |    19 |102871 |  31.1 |    86M |  36 | 150 |5769 |5773 | 137 |  1 |   0 |1393 | 2.921386e+04 | 2.904300e+04 |   0.59%|  32.21%
 92.1s|   900 |    19 |104977 |  30.8 |    86M |  36 | 150 |5769 |5769 | 139 |  2 |   0 |1403 | 2.921386e+04 | 2.904300e+04 |   0.59%|  34.36%
 96.0s|  1000 |    17 |107089 |  30.5 |    86M |  36 | 150 |5769 |   0 | 185 |  0 |   0 |1409 | 2.921386e+04 | 2.904300e+04 |   0.59%|  36.76%
 96.7s|  1100 |    17 |109145 |  30.2 |    86M |  36 | 150 |5769 |5777 | 197 |  1 |   0 |1421 | 2.921386e+04 | 2.904300e+04 |   0.59%|  36.79%
 97.4s|  1200 |    25 |111520 |  30.0 |    86M |  36 | 150 |5769 |5777 | 202 |  1 |   0 |1443 | 2.921386e+04 | 2.904300e+04 |   0.59%|  36.79%
 97.9s|  1300 |    21 |113230 |  29.6 |    86M |  38 | 150 |5769 |   0 | 202 |  0 |   0 |1449 | 2.921386e+04 | 2.904300e+04 |   0.59%|  36.80%
 time | node  | left  |LP iter|LP it/n|mem/heur|mdpt |vars |cons |rows |cuts |sepa|confs|strbr|  dualbound   | primalbound  |  gap   | compl. 
 98.3s|  1400 |    21 |114876 |  29.3 |    86M |  38 | 150 |5769 |5773 | 202 |  0 |   0 |1455 | 2.921386e+04 | 2.904300e+04 |   0.59%|  36.80%
 99.0s|  1500 |    25 |117621 |  29.2 |    86M |  39 | 150 |5769 |5773 | 202 |  1 |   0 |1457 | 2.921386e+04 | 2.904300e+04 |   0.59%|  36.80%
 99.6s|  1600 |    25 |119916 |  29.1 |    86M |  39 | 150 |5769 |   0 | 202 |  0 |   0 |1463 | 2.921386e+04 | 2.904300e+04 |   0.59%|  36.80%
  100s|  1700 |    19 |121748 |  28.8 |    86M |  50 | 150 |5769 |   0 | 203 |  0 |   0 |1477 | 2.921386e+04 | 2.904300e+04 |   0.59%|  36.80%
  102s|  1800 |    19 |124271 |  28.7 |    86M |  50 | 150 |5769 |5778 | 208 |  2 |   0 |1484 | 2.921386e+04 | 2.904300e+04 |   0.59%|  37.22%
  103s|  1900 |    17 |126466 |  28.5 |    86M |  50 | 150 |5769 |5774 | 234 |  1 |   0 |1494 | 2.921386e+04 | 2.904300e+04 |   0.59%|  37.37%
  104s|  2000 |    15 |129768 |  28.6 |    86M |  50 | 150 |5769 |   0 | 238 |  0 |   0 |1505 | 2.921386e+04 | 2.904300e+04 |   0.59%|  37.37%
  107s|  2100 |    15 |132775 |  28.7 |    86M |  50 | 150 |5769 |   0 | 261 |  0 |   0 |1549 | 2.921386e+04 | 2.904300e+04 |   0.59%|  37.58%
  108s|  2200 |    15 |134614 |  28.4 |    86M |  50 | 150 |5769 |5778 | 274 |  1 |   0 |1549 | 2.921386e+04 | 2.904300e+04 |   0.59%|  37.80%
  110s|  2300 |    13 |137214 |  28.4 |    87M |  50 | 150 |5769 |   0 | 284 |  0 |   0 |1552 | 2.921386e+04 | 2.904300e+04 |   0.59%|  37.80%
  113s|  2400 |    13 |140711 |  28.5 |    88M |  50 | 150 |5769 |   0 | 337 |  0 |   0 |1576 | 2.921386e+04 | 2.904300e+04 |   0.59%|  37.80%
  115s|  2500 |    13 |143862 |  28.6 |    88M |  56 | 150 |5769 |5782 | 344 |  1 |   0 |1632 | 2.921386e+04 | 2.904300e+04 |   0.59%|  37.80%
  115s|  2600 |    13 |146345 |  28.5 |    88M |  62 | 150 |5769 |   0 | 345 |  0 |   0 |1643 | 2.921386e+04 | 2.904300e+04 |   0.59%|  37.80%
  116s|  2700 |    13 |148737 |  28.4 |    88M |  72 | 150 |5769 |5783 | 347 |  0 |   0 |1664 | 2.921386e+04 | 2.904300e+04 |   0.59%|  37.80%

SCIP Status        : problem is solved [optimal solution found]
Solving Time (sec) : 116.80
Solving Nodes      : 2779 (total of 4972 nodes in 2 runs)
Primal Bound       : +2.90430000000000e+04 (278 solutions)
Dual Bound         : +2.90430000000000e+04
Gap                : 0.00 %
Solve Status: optimal
Solve Time: 116.80 seconds
